c *********************************
c * Circuit generated by BenCGen
c *
c * Parity_358
c *
c * Ports with 1 gate(s): 1
c * Ports with 2 gate(s): 358
c * Total gates: 359
c *********************************
p cnf 717 1433
1 361 0
-1 -361 0
1 -360 0
361 -360 0
-1 -361 360 0
1 2 -362 0
-1 2 362 0
1 -2 362 0
-1 -2 -362 0
3 4 -363 0
-3 4 363 0
3 -4 363 0
-3 -4 -363 0
5 6 -364 0
-5 6 364 0
5 -6 364 0
-5 -6 -364 0
7 8 -365 0
-7 8 365 0
7 -8 365 0
-7 -8 -365 0
9 10 -366 0
-9 10 366 0
9 -10 366 0
-9 -10 -366 0
11 12 -367 0
-11 12 367 0
11 -12 367 0
-11 -12 -367 0
13 14 -368 0
-13 14 368 0
13 -14 368 0
-13 -14 -368 0
15 16 -369 0
-15 16 369 0
15 -16 369 0
-15 -16 -369 0
17 18 -370 0
-17 18 370 0
17 -18 370 0
-17 -18 -370 0
19 20 -371 0
-19 20 371 0
19 -20 371 0
-19 -20 -371 0
21 22 -372 0
-21 22 372 0
21 -22 372 0
-21 -22 -372 0
23 24 -373 0
-23 24 373 0
23 -24 373 0
-23 -24 -373 0
25 26 -374 0
-25 26 374 0
25 -26 374 0
-25 -26 -374 0
27 28 -375 0
-27 28 375 0
27 -28 375 0
-27 -28 -375 0
29 30 -376 0
-29 30 376 0
29 -30 376 0
-29 -30 -376 0
31 32 -377 0
-31 32 377 0
31 -32 377 0
-31 -32 -377 0
33 34 -378 0
-33 34 378 0
33 -34 378 0
-33 -34 -378 0
35 36 -379 0
-35 36 379 0
35 -36 379 0
-35 -36 -379 0
37 38 -380 0
-37 38 380 0
37 -38 380 0
-37 -38 -380 0
39 40 -381 0
-39 40 381 0
39 -40 381 0
-39 -40 -381 0
41 42 -382 0
-41 42 382 0
41 -42 382 0
-41 -42 -382 0
43 44 -383 0
-43 44 383 0
43 -44 383 0
-43 -44 -383 0
45 46 -384 0
-45 46 384 0
45 -46 384 0
-45 -46 -384 0
47 48 -385 0
-47 48 385 0
47 -48 385 0
-47 -48 -385 0
49 50 -386 0
-49 50 386 0
49 -50 386 0
-49 -50 -386 0
51 52 -387 0
-51 52 387 0
51 -52 387 0
-51 -52 -387 0
53 54 -388 0
-53 54 388 0
53 -54 388 0
-53 -54 -388 0
55 56 -389 0
-55 56 389 0
55 -56 389 0
-55 -56 -389 0
57 58 -390 0
-57 58 390 0
57 -58 390 0
-57 -58 -390 0
59 60 -391 0
-59 60 391 0
59 -60 391 0
-59 -60 -391 0
61 62 -392 0
-61 62 392 0
61 -62 392 0
-61 -62 -392 0
63 64 -393 0
-63 64 393 0
63 -64 393 0
-63 -64 -393 0
65 66 -394 0
-65 66 394 0
65 -66 394 0
-65 -66 -394 0
67 68 -395 0
-67 68 395 0
67 -68 395 0
-67 -68 -395 0
69 70 -396 0
-69 70 396 0
69 -70 396 0
-69 -70 -396 0
71 72 -397 0
-71 72 397 0
71 -72 397 0
-71 -72 -397 0
73 74 -398 0
-73 74 398 0
73 -74 398 0
-73 -74 -398 0
75 76 -399 0
-75 76 399 0
75 -76 399 0
-75 -76 -399 0
77 78 -400 0
-77 78 400 0
77 -78 400 0
-77 -78 -400 0
79 80 -401 0
-79 80 401 0
79 -80 401 0
-79 -80 -401 0
81 82 -402 0
-81 82 402 0
81 -82 402 0
-81 -82 -402 0
83 84 -403 0
-83 84 403 0
83 -84 403 0
-83 -84 -403 0
85 86 -404 0
-85 86 404 0
85 -86 404 0
-85 -86 -404 0
87 88 -405 0
-87 88 405 0
87 -88 405 0
-87 -88 -405 0
89 90 -406 0
-89 90 406 0
89 -90 406 0
-89 -90 -406 0
91 92 -407 0
-91 92 407 0
91 -92 407 0
-91 -92 -407 0
93 94 -408 0
-93 94 408 0
93 -94 408 0
-93 -94 -408 0
95 96 -409 0
-95 96 409 0
95 -96 409 0
-95 -96 -409 0
97 98 -410 0
-97 98 410 0
97 -98 410 0
-97 -98 -410 0
99 100 -411 0
-99 100 411 0
99 -100 411 0
-99 -100 -411 0
101 102 -412 0
-101 102 412 0
101 -102 412 0
-101 -102 -412 0
103 104 -413 0
-103 104 413 0
103 -104 413 0
-103 -104 -413 0
105 106 -414 0
-105 106 414 0
105 -106 414 0
-105 -106 -414 0
107 108 -415 0
-107 108 415 0
107 -108 415 0
-107 -108 -415 0
109 110 -416 0
-109 110 416 0
109 -110 416 0
-109 -110 -416 0
111 112 -417 0
-111 112 417 0
111 -112 417 0
-111 -112 -417 0
113 114 -418 0
-113 114 418 0
113 -114 418 0
-113 -114 -418 0
115 116 -419 0
-115 116 419 0
115 -116 419 0
-115 -116 -419 0
117 118 -420 0
-117 118 420 0
117 -118 420 0
-117 -118 -420 0
119 120 -421 0
-119 120 421 0
119 -120 421 0
-119 -120 -421 0
121 122 -422 0
-121 122 422 0
121 -122 422 0
-121 -122 -422 0
123 124 -423 0
-123 124 423 0
123 -124 423 0
-123 -124 -423 0
125 126 -424 0
-125 126 424 0
125 -126 424 0
-125 -126 -424 0
127 128 -425 0
-127 128 425 0
127 -128 425 0
-127 -128 -425 0
129 130 -426 0
-129 130 426 0
129 -130 426 0
-129 -130 -426 0
131 132 -427 0
-131 132 427 0
131 -132 427 0
-131 -132 -427 0
133 134 -428 0
-133 134 428 0
133 -134 428 0
-133 -134 -428 0
135 136 -429 0
-135 136 429 0
135 -136 429 0
-135 -136 -429 0
137 138 -430 0
-137 138 430 0
137 -138 430 0
-137 -138 -430 0
139 140 -431 0
-139 140 431 0
139 -140 431 0
-139 -140 -431 0
141 142 -432 0
-141 142 432 0
141 -142 432 0
-141 -142 -432 0
143 144 -433 0
-143 144 433 0
143 -144 433 0
-143 -144 -433 0
145 146 -434 0
-145 146 434 0
145 -146 434 0
-145 -146 -434 0
147 148 -435 0
-147 148 435 0
147 -148 435 0
-147 -148 -435 0
149 150 -436 0
-149 150 436 0
149 -150 436 0
-149 -150 -436 0
151 152 -437 0
-151 152 437 0
151 -152 437 0
-151 -152 -437 0
153 154 -438 0
-153 154 438 0
153 -154 438 0
-153 -154 -438 0
155 156 -439 0
-155 156 439 0
155 -156 439 0
-155 -156 -439 0
157 158 -440 0
-157 158 440 0
157 -158 440 0
-157 -158 -440 0
159 160 -441 0
-159 160 441 0
159 -160 441 0
-159 -160 -441 0
161 162 -442 0
-161 162 442 0
161 -162 442 0
-161 -162 -442 0
163 164 -443 0
-163 164 443 0
163 -164 443 0
-163 -164 -443 0
165 166 -444 0
-165 166 444 0
165 -166 444 0
-165 -166 -444 0
167 168 -445 0
-167 168 445 0
167 -168 445 0
-167 -168 -445 0
169 170 -446 0
-169 170 446 0
169 -170 446 0
-169 -170 -446 0
171 172 -447 0
-171 172 447 0
171 -172 447 0
-171 -172 -447 0
173 174 -448 0
-173 174 448 0
173 -174 448 0
-173 -174 -448 0
175 176 -449 0
-175 176 449 0
175 -176 449 0
-175 -176 -449 0
177 178 -450 0
-177 178 450 0
177 -178 450 0
-177 -178 -450 0
179 180 -451 0
-179 180 451 0
179 -180 451 0
-179 -180 -451 0
181 182 -452 0
-181 182 452 0
181 -182 452 0
-181 -182 -452 0
183 184 -453 0
-183 184 453 0
183 -184 453 0
-183 -184 -453 0
185 186 -454 0
-185 186 454 0
185 -186 454 0
-185 -186 -454 0
187 188 -455 0
-187 188 455 0
187 -188 455 0
-187 -188 -455 0
189 190 -456 0
-189 190 456 0
189 -190 456 0
-189 -190 -456 0
191 192 -457 0
-191 192 457 0
191 -192 457 0
-191 -192 -457 0
193 194 -458 0
-193 194 458 0
193 -194 458 0
-193 -194 -458 0
195 196 -459 0
-195 196 459 0
195 -196 459 0
-195 -196 -459 0
197 198 -460 0
-197 198 460 0
197 -198 460 0
-197 -198 -460 0
199 200 -461 0
-199 200 461 0
199 -200 461 0
-199 -200 -461 0
201 202 -462 0
-201 202 462 0
201 -202 462 0
-201 -202 -462 0
203 204 -463 0
-203 204 463 0
203 -204 463 0
-203 -204 -463 0
205 206 -464 0
-205 206 464 0
205 -206 464 0
-205 -206 -464 0
207 208 -465 0
-207 208 465 0
207 -208 465 0
-207 -208 -465 0
209 210 -466 0
-209 210 466 0
209 -210 466 0
-209 -210 -466 0
211 212 -467 0
-211 212 467 0
211 -212 467 0
-211 -212 -467 0
213 214 -468 0
-213 214 468 0
213 -214 468 0
-213 -214 -468 0
215 216 -469 0
-215 216 469 0
215 -216 469 0
-215 -216 -469 0
217 218 -470 0
-217 218 470 0
217 -218 470 0
-217 -218 -470 0
219 220 -471 0
-219 220 471 0
219 -220 471 0
-219 -220 -471 0
221 222 -472 0
-221 222 472 0
221 -222 472 0
-221 -222 -472 0
223 224 -473 0
-223 224 473 0
223 -224 473 0
-223 -224 -473 0
225 226 -474 0
-225 226 474 0
225 -226 474 0
-225 -226 -474 0
227 228 -475 0
-227 228 475 0
227 -228 475 0
-227 -228 -475 0
229 230 -476 0
-229 230 476 0
229 -230 476 0
-229 -230 -476 0
231 232 -477 0
-231 232 477 0
231 -232 477 0
-231 -232 -477 0
233 234 -478 0
-233 234 478 0
233 -234 478 0
-233 -234 -478 0
235 236 -479 0
-235 236 479 0
235 -236 479 0
-235 -236 -479 0
237 238 -480 0
-237 238 480 0
237 -238 480 0
-237 -238 -480 0
239 240 -481 0
-239 240 481 0
239 -240 481 0
-239 -240 -481 0
241 242 -482 0
-241 242 482 0
241 -242 482 0
-241 -242 -482 0
243 244 -483 0
-243 244 483 0
243 -244 483 0
-243 -244 -483 0
245 246 -484 0
-245 246 484 0
245 -246 484 0
-245 -246 -484 0
247 248 -485 0
-247 248 485 0
247 -248 485 0
-247 -248 -485 0
249 250 -486 0
-249 250 486 0
249 -250 486 0
-249 -250 -486 0
251 252 -487 0
-251 252 487 0
251 -252 487 0
-251 -252 -487 0
253 254 -488 0
-253 254 488 0
253 -254 488 0
-253 -254 -488 0
255 256 -489 0
-255 256 489 0
255 -256 489 0
-255 -256 -489 0
257 258 -490 0
-257 258 490 0
257 -258 490 0
-257 -258 -490 0
259 260 -491 0
-259 260 491 0
259 -260 491 0
-259 -260 -491 0
261 262 -492 0
-261 262 492 0
261 -262 492 0
-261 -262 -492 0
263 264 -493 0
-263 264 493 0
263 -264 493 0
-263 -264 -493 0
265 266 -494 0
-265 266 494 0
265 -266 494 0
-265 -266 -494 0
267 268 -495 0
-267 268 495 0
267 -268 495 0
-267 -268 -495 0
269 270 -496 0
-269 270 496 0
269 -270 496 0
-269 -270 -496 0
271 272 -497 0
-271 272 497 0
271 -272 497 0
-271 -272 -497 0
273 274 -498 0
-273 274 498 0
273 -274 498 0
-273 -274 -498 0
275 276 -499 0
-275 276 499 0
275 -276 499 0
-275 -276 -499 0
277 278 -500 0
-277 278 500 0
277 -278 500 0
-277 -278 -500 0
279 280 -501 0
-279 280 501 0
279 -280 501 0
-279 -280 -501 0
281 282 -502 0
-281 282 502 0
281 -282 502 0
-281 -282 -502 0
283 284 -503 0
-283 284 503 0
283 -284 503 0
-283 -284 -503 0
285 286 -504 0
-285 286 504 0
285 -286 504 0
-285 -286 -504 0
287 288 -505 0
-287 288 505 0
287 -288 505 0
-287 -288 -505 0
289 290 -506 0
-289 290 506 0
289 -290 506 0
-289 -290 -506 0
291 292 -507 0
-291 292 507 0
291 -292 507 0
-291 -292 -507 0
293 294 -508 0
-293 294 508 0
293 -294 508 0
-293 -294 -508 0
295 296 -509 0
-295 296 509 0
295 -296 509 0
-295 -296 -509 0
297 298 -510 0
-297 298 510 0
297 -298 510 0
-297 -298 -510 0
299 300 -511 0
-299 300 511 0
299 -300 511 0
-299 -300 -511 0
301 302 -512 0
-301 302 512 0
301 -302 512 0
-301 -302 -512 0
303 304 -513 0
-303 304 513 0
303 -304 513 0
-303 -304 -513 0
305 306 -514 0
-305 306 514 0
305 -306 514 0
-305 -306 -514 0
307 308 -515 0
-307 308 515 0
307 -308 515 0
-307 -308 -515 0
309 310 -516 0
-309 310 516 0
309 -310 516 0
-309 -310 -516 0
311 312 -517 0
-311 312 517 0
311 -312 517 0
-311 -312 -517 0
313 314 -518 0
-313 314 518 0
313 -314 518 0
-313 -314 -518 0
315 316 -519 0
-315 316 519 0
315 -316 519 0
-315 -316 -519 0
317 318 -520 0
-317 318 520 0
317 -318 520 0
-317 -318 -520 0
319 320 -521 0
-319 320 521 0
319 -320 521 0
-319 -320 -521 0
321 322 -522 0
-321 322 522 0
321 -322 522 0
-321 -322 -522 0
323 324 -523 0
-323 324 523 0
323 -324 523 0
-323 -324 -523 0
325 326 -524 0
-325 326 524 0
325 -326 524 0
-325 -326 -524 0
327 328 -525 0
-327 328 525 0
327 -328 525 0
-327 -328 -525 0
329 330 -526 0
-329 330 526 0
329 -330 526 0
-329 -330 -526 0
331 332 -527 0
-331 332 527 0
331 -332 527 0
-331 -332 -527 0
333 334 -528 0
-333 334 528 0
333 -334 528 0
-333 -334 -528 0
335 336 -529 0
-335 336 529 0
335 -336 529 0
-335 -336 -529 0
337 338 -530 0
-337 338 530 0
337 -338 530 0
-337 -338 -530 0
339 340 -531 0
-339 340 531 0
339 -340 531 0
-339 -340 -531 0
341 342 -532 0
-341 342 532 0
341 -342 532 0
-341 -342 -532 0
343 344 -533 0
-343 344 533 0
343 -344 533 0
-343 -344 -533 0
345 346 -534 0
-345 346 534 0
345 -346 534 0
-345 -346 -534 0
347 348 -535 0
-347 348 535 0
347 -348 535 0
-347 -348 -535 0
349 350 -536 0
-349 350 536 0
349 -350 536 0
-349 -350 -536 0
351 352 -537 0
-351 352 537 0
351 -352 537 0
-351 -352 -537 0
353 354 -538 0
-353 354 538 0
353 -354 538 0
-353 -354 -538 0
355 356 -539 0
-355 356 539 0
355 -356 539 0
-355 -356 -539 0
357 358 -540 0
-357 358 540 0
357 -358 540 0
-357 -358 -540 0
362 363 -541 0
-362 363 541 0
362 -363 541 0
-362 -363 -541 0
364 365 -542 0
-364 365 542 0
364 -365 542 0
-364 -365 -542 0
366 367 -543 0
-366 367 543 0
366 -367 543 0
-366 -367 -543 0
368 369 -544 0
-368 369 544 0
368 -369 544 0
-368 -369 -544 0
370 371 -545 0
-370 371 545 0
370 -371 545 0
-370 -371 -545 0
372 373 -546 0
-372 373 546 0
372 -373 546 0
-372 -373 -546 0
374 375 -547 0
-374 375 547 0
374 -375 547 0
-374 -375 -547 0
376 377 -548 0
-376 377 548 0
376 -377 548 0
-376 -377 -548 0
378 379 -549 0
-378 379 549 0
378 -379 549 0
-378 -379 -549 0
380 381 -550 0
-380 381 550 0
380 -381 550 0
-380 -381 -550 0
382 383 -551 0
-382 383 551 0
382 -383 551 0
-382 -383 -551 0
384 385 -552 0
-384 385 552 0
384 -385 552 0
-384 -385 -552 0
386 387 -553 0
-386 387 553 0
386 -387 553 0
-386 -387 -553 0
388 389 -554 0
-388 389 554 0
388 -389 554 0
-388 -389 -554 0
390 391 -555 0
-390 391 555 0
390 -391 555 0
-390 -391 -555 0
392 393 -556 0
-392 393 556 0
392 -393 556 0
-392 -393 -556 0
394 395 -557 0
-394 395 557 0
394 -395 557 0
-394 -395 -557 0
396 397 -558 0
-396 397 558 0
396 -397 558 0
-396 -397 -558 0
398 399 -559 0
-398 399 559 0
398 -399 559 0
-398 -399 -559 0
400 401 -560 0
-400 401 560 0
400 -401 560 0
-400 -401 -560 0
402 403 -561 0
-402 403 561 0
402 -403 561 0
-402 -403 -561 0
404 405 -562 0
-404 405 562 0
404 -405 562 0
-404 -405 -562 0
406 407 -563 0
-406 407 563 0
406 -407 563 0
-406 -407 -563 0
408 409 -564 0
-408 409 564 0
408 -409 564 0
-408 -409 -564 0
410 411 -565 0
-410 411 565 0
410 -411 565 0
-410 -411 -565 0
412 413 -566 0
-412 413 566 0
412 -413 566 0
-412 -413 -566 0
414 415 -567 0
-414 415 567 0
414 -415 567 0
-414 -415 -567 0
416 417 -568 0
-416 417 568 0
416 -417 568 0
-416 -417 -568 0
418 419 -569 0
-418 419 569 0
418 -419 569 0
-418 -419 -569 0
420 421 -570 0
-420 421 570 0
420 -421 570 0
-420 -421 -570 0
422 423 -571 0
-422 423 571 0
422 -423 571 0
-422 -423 -571 0
424 425 -572 0
-424 425 572 0
424 -425 572 0
-424 -425 -572 0
426 427 -573 0
-426 427 573 0
426 -427 573 0
-426 -427 -573 0
428 429 -574 0
-428 429 574 0
428 -429 574 0
-428 -429 -574 0
430 431 -575 0
-430 431 575 0
430 -431 575 0
-430 -431 -575 0
432 433 -576 0
-432 433 576 0
432 -433 576 0
-432 -433 -576 0
434 435 -577 0
-434 435 577 0
434 -435 577 0
-434 -435 -577 0
436 437 -578 0
-436 437 578 0
436 -437 578 0
-436 -437 -578 0
438 439 -579 0
-438 439 579 0
438 -439 579 0
-438 -439 -579 0
440 441 -580 0
-440 441 580 0
440 -441 580 0
-440 -441 -580 0
442 443 -581 0
-442 443 581 0
442 -443 581 0
-442 -443 -581 0
444 445 -582 0
-444 445 582 0
444 -445 582 0
-444 -445 -582 0
446 447 -583 0
-446 447 583 0
446 -447 583 0
-446 -447 -583 0
448 449 -584 0
-448 449 584 0
448 -449 584 0
-448 -449 -584 0
450 451 -585 0
-450 451 585 0
450 -451 585 0
-450 -451 -585 0
452 453 -586 0
-452 453 586 0
452 -453 586 0
-452 -453 -586 0
454 455 -587 0
-454 455 587 0
454 -455 587 0
-454 -455 -587 0
456 457 -588 0
-456 457 588 0
456 -457 588 0
-456 -457 -588 0
458 459 -589 0
-458 459 589 0
458 -459 589 0
-458 -459 -589 0
460 461 -590 0
-460 461 590 0
460 -461 590 0
-460 -461 -590 0
462 463 -591 0
-462 463 591 0
462 -463 591 0
-462 -463 -591 0
464 465 -592 0
-464 465 592 0
464 -465 592 0
-464 -465 -592 0
466 467 -593 0
-466 467 593 0
466 -467 593 0
-466 -467 -593 0
468 469 -594 0
-468 469 594 0
468 -469 594 0
-468 -469 -594 0
470 471 -595 0
-470 471 595 0
470 -471 595 0
-470 -471 -595 0
472 473 -596 0
-472 473 596 0
472 -473 596 0
-472 -473 -596 0
474 475 -597 0
-474 475 597 0
474 -475 597 0
-474 -475 -597 0
476 477 -598 0
-476 477 598 0
476 -477 598 0
-476 -477 -598 0
478 479 -599 0
-478 479 599 0
478 -479 599 0
-478 -479 -599 0
480 481 -600 0
-480 481 600 0
480 -481 600 0
-480 -481 -600 0
482 483 -601 0
-482 483 601 0
482 -483 601 0
-482 -483 -601 0
484 485 -602 0
-484 485 602 0
484 -485 602 0
-484 -485 -602 0
486 487 -603 0
-486 487 603 0
486 -487 603 0
-486 -487 -603 0
488 489 -604 0
-488 489 604 0
488 -489 604 0
-488 -489 -604 0
490 491 -605 0
-490 491 605 0
490 -491 605 0
-490 -491 -605 0
492 493 -606 0
-492 493 606 0
492 -493 606 0
-492 -493 -606 0
494 495 -607 0
-494 495 607 0
494 -495 607 0
-494 -495 -607 0
496 497 -608 0
-496 497 608 0
496 -497 608 0
-496 -497 -608 0
498 499 -609 0
-498 499 609 0
498 -499 609 0
-498 -499 -609 0
500 501 -610 0
-500 501 610 0
500 -501 610 0
-500 -501 -610 0
502 503 -611 0
-502 503 611 0
502 -503 611 0
-502 -503 -611 0
504 505 -612 0
-504 505 612 0
504 -505 612 0
-504 -505 -612 0
506 507 -613 0
-506 507 613 0
506 -507 613 0
-506 -507 -613 0
508 509 -614 0
-508 509 614 0
508 -509 614 0
-508 -509 -614 0
510 511 -615 0
-510 511 615 0
510 -511 615 0
-510 -511 -615 0
512 513 -616 0
-512 513 616 0
512 -513 616 0
-512 -513 -616 0
514 515 -617 0
-514 515 617 0
514 -515 617 0
-514 -515 -617 0
516 517 -618 0
-516 517 618 0
516 -517 618 0
-516 -517 -618 0
518 519 -619 0
-518 519 619 0
518 -519 619 0
-518 -519 -619 0
520 521 -620 0
-520 521 620 0
520 -521 620 0
-520 -521 -620 0
522 523 -621 0
-522 523 621 0
522 -523 621 0
-522 -523 -621 0
524 525 -622 0
-524 525 622 0
524 -525 622 0
-524 -525 -622 0
526 527 -623 0
-526 527 623 0
526 -527 623 0
-526 -527 -623 0
528 529 -624 0
-528 529 624 0
528 -529 624 0
-528 -529 -624 0
530 531 -625 0
-530 531 625 0
530 -531 625 0
-530 -531 -625 0
532 533 -626 0
-532 533 626 0
532 -533 626 0
-532 -533 -626 0
534 535 -627 0
-534 535 627 0
534 -535 627 0
-534 -535 -627 0
536 537 -628 0
-536 537 628 0
536 -537 628 0
-536 -537 -628 0
538 539 -629 0
-538 539 629 0
538 -539 629 0
-538 -539 -629 0
541 542 -630 0
-541 542 630 0
541 -542 630 0
-541 -542 -630 0
543 544 -631 0
-543 544 631 0
543 -544 631 0
-543 -544 -631 0
545 546 -632 0
-545 546 632 0
545 -546 632 0
-545 -546 -632 0
547 548 -633 0
-547 548 633 0
547 -548 633 0
-547 -548 -633 0
549 550 -634 0
-549 550 634 0
549 -550 634 0
-549 -550 -634 0
551 552 -635 0
-551 552 635 0
551 -552 635 0
-551 -552 -635 0
553 554 -636 0
-553 554 636 0
553 -554 636 0
-553 -554 -636 0
555 556 -637 0
-555 556 637 0
555 -556 637 0
-555 -556 -637 0
557 558 -638 0
-557 558 638 0
557 -558 638 0
-557 -558 -638 0
559 560 -639 0
-559 560 639 0
559 -560 639 0
-559 -560 -639 0
561 562 -640 0
-561 562 640 0
561 -562 640 0
-561 -562 -640 0
563 564 -641 0
-563 564 641 0
563 -564 641 0
-563 -564 -641 0
565 566 -642 0
-565 566 642 0
565 -566 642 0
-565 -566 -642 0
567 568 -643 0
-567 568 643 0
567 -568 643 0
-567 -568 -643 0
569 570 -644 0
-569 570 644 0
569 -570 644 0
-569 -570 -644 0
571 572 -645 0
-571 572 645 0
571 -572 645 0
-571 -572 -645 0
573 574 -646 0
-573 574 646 0
573 -574 646 0
-573 -574 -646 0
575 576 -647 0
-575 576 647 0
575 -576 647 0
-575 -576 -647 0
577 578 -648 0
-577 578 648 0
577 -578 648 0
-577 -578 -648 0
579 580 -649 0
-579 580 649 0
579 -580 649 0
-579 -580 -649 0
581 582 -650 0
-581 582 650 0
581 -582 650 0
-581 -582 -650 0
583 584 -651 0
-583 584 651 0
583 -584 651 0
-583 -584 -651 0
585 586 -652 0
-585 586 652 0
585 -586 652 0
-585 -586 -652 0
587 588 -653 0
-587 588 653 0
587 -588 653 0
-587 -588 -653 0
589 590 -654 0
-589 590 654 0
589 -590 654 0
-589 -590 -654 0
591 592 -655 0
-591 592 655 0
591 -592 655 0
-591 -592 -655 0
593 594 -656 0
-593 594 656 0
593 -594 656 0
-593 -594 -656 0
595 596 -657 0
-595 596 657 0
595 -596 657 0
-595 -596 -657 0
597 598 -658 0
-597 598 658 0
597 -598 658 0
-597 -598 -658 0
599 600 -659 0
-599 600 659 0
599 -600 659 0
-599 -600 -659 0
601 602 -660 0
-601 602 660 0
601 -602 660 0
-601 -602 -660 0
603 604 -661 0
-603 604 661 0
603 -604 661 0
-603 -604 -661 0
605 606 -662 0
-605 606 662 0
605 -606 662 0
-605 -606 -662 0
607 608 -663 0
-607 608 663 0
607 -608 663 0
-607 -608 -663 0
609 610 -664 0
-609 610 664 0
609 -610 664 0
-609 -610 -664 0
611 612 -665 0
-611 612 665 0
611 -612 665 0
-611 -612 -665 0
613 614 -666 0
-613 614 666 0
613 -614 666 0
-613 -614 -666 0
615 616 -667 0
-615 616 667 0
615 -616 667 0
-615 -616 -667 0
617 618 -668 0
-617 618 668 0
617 -618 668 0
-617 -618 -668 0
619 620 -669 0
-619 620 669 0
619 -620 669 0
-619 -620 -669 0
621 622 -670 0
-621 622 670 0
621 -622 670 0
-621 -622 -670 0
623 624 -671 0
-623 624 671 0
623 -624 671 0
-623 -624 -671 0
625 626 -672 0
-625 626 672 0
625 -626 672 0
-625 -626 -672 0
627 628 -673 0
-627 628 673 0
627 -628 673 0
-627 -628 -673 0
629 540 -674 0
-629 540 674 0
629 -540 674 0
-629 -540 -674 0
630 631 -675 0
-630 631 675 0
630 -631 675 0
-630 -631 -675 0
632 633 -676 0
-632 633 676 0
632 -633 676 0
-632 -633 -676 0
634 635 -677 0
-634 635 677 0
634 -635 677 0
-634 -635 -677 0
636 637 -678 0
-636 637 678 0
636 -637 678 0
-636 -637 -678 0
638 639 -679 0
-638 639 679 0
638 -639 679 0
-638 -639 -679 0
640 641 -680 0
-640 641 680 0
640 -641 680 0
-640 -641 -680 0
642 643 -681 0
-642 643 681 0
642 -643 681 0
-642 -643 -681 0
644 645 -682 0
-644 645 682 0
644 -645 682 0
-644 -645 -682 0
646 647 -683 0
-646 647 683 0
646 -647 683 0
-646 -647 -683 0
648 649 -684 0
-648 649 684 0
648 -649 684 0
-648 -649 -684 0
650 651 -685 0
-650 651 685 0
650 -651 685 0
-650 -651 -685 0
652 653 -686 0
-652 653 686 0
652 -653 686 0
-652 -653 -686 0
654 655 -687 0
-654 655 687 0
654 -655 687 0
-654 -655 -687 0
656 657 -688 0
-656 657 688 0
656 -657 688 0
-656 -657 -688 0
658 659 -689 0
-658 659 689 0
658 -659 689 0
-658 -659 -689 0
660 661 -690 0
-660 661 690 0
660 -661 690 0
-660 -661 -690 0
662 663 -691 0
-662 663 691 0
662 -663 691 0
-662 -663 -691 0
664 665 -692 0
-664 665 692 0
664 -665 692 0
-664 -665 -692 0
666 667 -693 0
-666 667 693 0
666 -667 693 0
-666 -667 -693 0
668 669 -694 0
-668 669 694 0
668 -669 694 0
-668 -669 -694 0
670 671 -695 0
-670 671 695 0
670 -671 695 0
-670 -671 -695 0
672 673 -696 0
-672 673 696 0
672 -673 696 0
-672 -673 -696 0
675 676 -697 0
-675 676 697 0
675 -676 697 0
-675 -676 -697 0
677 678 -698 0
-677 678 698 0
677 -678 698 0
-677 -678 -698 0
679 680 -699 0
-679 680 699 0
679 -680 699 0
-679 -680 -699 0
681 682 -700 0
-681 682 700 0
681 -682 700 0
-681 -682 -700 0
683 684 -701 0
-683 684 701 0
683 -684 701 0
-683 -684 -701 0
685 686 -702 0
-685 686 702 0
685 -686 702 0
-685 -686 -702 0
687 688 -703 0
-687 688 703 0
687 -688 703 0
-687 -688 -703 0
689 690 -704 0
-689 690 704 0
689 -690 704 0
-689 -690 -704 0
691 692 -705 0
-691 692 705 0
691 -692 705 0
-691 -692 -705 0
693 694 -706 0
-693 694 706 0
693 -694 706 0
-693 -694 -706 0
695 696 -707 0
-695 696 707 0
695 -696 707 0
-695 -696 -707 0
697 698 -708 0
-697 698 708 0
697 -698 708 0
-697 -698 -708 0
699 700 -709 0
-699 700 709 0
699 -700 709 0
-699 -700 -709 0
701 702 -710 0
-701 702 710 0
701 -702 710 0
-701 -702 -710 0
703 704 -711 0
-703 704 711 0
703 -704 711 0
-703 -704 -711 0
705 706 -712 0
-705 706 712 0
705 -706 712 0
-705 -706 -712 0
707 674 -713 0
-707 674 713 0
707 -674 713 0
-707 -674 -713 0
708 709 -714 0
-708 709 714 0
708 -709 714 0
-708 -709 -714 0
710 711 -715 0
-710 711 715 0
710 -711 715 0
-710 -711 -715 0
712 713 -716 0
-712 713 716 0
712 -713 716 0
-712 -713 -716 0
714 715 -717 0
-714 715 717 0
714 -715 717 0
-714 -715 -717 0
717 716 -359 0
-717 716 359 0
717 -716 359 0
-717 -716 -359 0
